100 1465
447 483 426 609 516 999 36 306 495 744 402 33 612 537 336 810 735 600 429 966 954 780 678 831 372 204 459 21 525 678 591 126 189 156 180 354 948 444 951 978 519 18 603 666 339 96 909 819 111 231 345 984 165 618 270 897 387 162 867 912 297 597 396 42 381 972 690 66 261 27 522 180 3 891 729 705 720 996 18 246 765 900 279 648 666 531 540 150 567 459 189 804 987 243 45 579 468 237 90 705 
447 483 425 609 514 998 34 304 495 743 400 32 612 535 336 809 735 599 427 966 954 780 677 829 370 203 457 20 523 677 590 125 189 156 180 354 946 444 951 976 517 18 602 664 339 96 909 817 109 230 344 983 164 618 269 895 387 161 865 912 297 595 394 42 379 970 690 66 261 26 522 180 2 890 727 703 719 994 17 244 764 899 278 647 666 529 539 148 565 459 187 802 986 241 45 579 466 237 89 705 
